SystemName          BN
SystemLabel         BN

NumberOfAtoms          50
NumberOfSpecies        2

%block ChemicalSpeciesLabel
1  5 B ../../pseudo/B.psml
2  7 N ../../pseudo/N.psml
%endblock ChemicalSpeciesLabel

PAO.BasisSize DZP

%block PAO.Basis
B       4                # We include 4 shells
n=2   0   2              # 2s orbitals (double zeta)
  0.000      0.000
   1.000      1.000
n=2   1   2 P   1        # 2p orbitals (double zeta) + polarization (single zeta)
  0.000      0.000
   1.000      1.000
n=3   0   1   # 3s diffuse orbital (single zeta) with fixed radii at 10 a.u.
  10.000
   1.000
n=3   1   1    # 3p diffuse orbital (single zeta) with fixed radii at 12 a.u.
  12.000
   1.000
N       4                # We include 4 shells
n=2   0   2              # 2s orbitals (double zeta)
  0.000      0.000
   1.000      1.000
n=2   1   2 P   1        # 2p orbitals (double zeta) + polarization (single zeta)
  0.000      0.000
   1.000      1.000
n=3   0   1   # 3s diffuse orbital (single zeta) with fixed radii at 10 a.u.
  12.000
   1.000
n=3   1   1   # 3p diffuse orbital (single zeta) with fixed radii at 12 a.u.
  14.000
   1.000
%endblock PAO.Basis

UseSaveData F

XC.functional GGA
XC.authors    PBE

LatticeConstant     12.52 Ang
%block LatticeVectors
1.0 0.0 0.000000
-0.5 0.8660254037729868 0.000000
0.0000000 0.000000 40.0
%endblock LatticeVectors

AtomicCoordinatesFormat Fractional
%block AtomicCoordinatesAndAtomicSpecies
0.0666666666        0.1333333334        0.5000000000 1
0.1333333334        0.0666666666        0.5000000000 2
0.0666666666        0.3333333334        0.5000000000 1
0.1333333334        0.2666666666        0.5000000000 2
0.0666666666        0.5333333334        0.5000000000 1
0.1333333334        0.4666666666        0.5000000000 2
0.0666666666        0.7333333334        0.5000000000 1
0.1333333334        0.6666666666        0.5000000000 2
0.0666666666        0.9333333334        0.5000000000 1
0.1333333334        0.8666666666        0.5000000000 2
0.2666666666        0.1333333334        0.5000000000 1
0.3333333334        0.0666666666        0.5000000000 2
0.2666666666        0.3333333334        0.5000000000 1
0.3333333334        0.2666666666        0.5000000000 2
0.2666666666        0.5333333334        0.5000000000 1
0.3333333334        0.4666666666        0.5000000000 2
0.2666666666        0.7333333334        0.5000000000 1
0.3333333334        0.6666666666        0.5000000000 2
0.2666666666        0.9333333334        0.5000000000 1
0.3333333334        0.8666666666        0.5000000000 2
0.4666666666        0.1333333334        0.5000000000 1
0.5333333334        0.0666666666        0.5000000000 2
0.4666666666        0.3333333334        0.5000000000 1
0.5333333334        0.2666666666        0.5000000000 2
0.4666666666        0.5333333334        0.5000000000 1
0.5333333334        0.4666666666        0.5000000000 2
0.4666666666        0.7333333334        0.5000000000 1
0.5333333334        0.6666666666        0.5000000000 2
0.4666666666        0.9333333334        0.5000000000 1
0.5333333334        0.8666666666        0.5000000000 2
0.6666666666        0.1333333334        0.5000000000 1
0.7333333334        0.0666666666        0.5000000000 2
0.6666666666        0.3333333334        0.5000000000 1
0.7333333334        0.2666666666        0.5000000000 2
0.6666666666        0.5333333334        0.5000000000 1
0.7333333334        0.4666666666        0.5000000000 2
0.6666666666        0.7333333334        0.5000000000 1
0.7333333334        0.6666666666        0.5000000000 2
0.6666666666        0.9333333334        0.5000000000 1
0.7333333334        0.8666666666        0.5000000000 2
0.8666666666        0.1333333334        0.5000000000 1
0.9333333334        0.0666666666        0.5000000000 2
0.8666666666        0.3333333334        0.5000000000 1
0.9333333334        0.2666666666        0.5000000000 2
0.8666666666        0.5333333334        0.5000000000 1
0.9333333334        0.4666666666        0.5000000000 2
0.8666666666        0.7333333334        0.5000000000 1
0.9333333334        0.6666666666        0.5000000000 2
0.8666666666        0.9333333334        0.5000000000 1
0.9333333334        0.8666666666        0.5000000000 2
%endblock AtomicCoordinatesAndAtomicSpecies

%block kgrid_Monkhorst_Pack
12  0  0  0.0
0  12  0  0.0
0  0  12  0.0
%endblock kgrid_Monkhorst_Pack

MeshCutoff         160 Ry

MaxSCFIterations     500
DM.MixingWeight      0.7
DM.NumberPulay       5
DM.Tolerance         1.0E-9
DM.MixSCF1          .true.

SaveRho              F
SaveDeltaRho         F
